res/heu/pdp_100_mem_1.0/1.0_1.0/lrc205.txt
Vehicle 0
0 36 49 6 7 57 58 100 87 45 40 38 41 92 3 4 96 91 89 55 54 51 102 103 

Vehicle 2
0 34 43 33 8 84 10 61 85 94 59 50 5 44 29 39 48 99 90 28 95 22 80 20 101 71 79 73 56 103 

Vehicle 3
0 1 24 2 53 52 19 37 75 31 47 30 23 98 74 21 42 81 27 70 93 72 26 88 17 11 82 62 77 68 78 103 

Vehicle 5
0 46 97 32 18 13 12 14 16 15 35 83 65 67 69 66 9 25 86 64 76 63 60 103 

Vehicle used: 4
Total Distance Traveled: 1304.8056238672584
Total Penalty of Delay: 0.0
Time Elasped: 21375
Vehicle 0 with capacity 1000
			Node 0
		Load 0.0
		Time 0.0
		Delay 0.0
			Membership 1
			Time Window [0, 960]
			Load at node 0
			Service time at node 0
			Location (40, 50)
	Distance between 9.219544457292887
			Node 36
		Load 27.0
		Time 187.0
		Delay 0.0
			Membership 1
			Time Window [187, 247]
			Load at node 27
			Service time at node 10
			Location (31, 52)
	Distance between 5.0
			Node 49
		Load 36.0
		Time 202.0
		Delay 0.0
			Membership 1
			Time Window [14, 494]
			Load at node 9
			Service time at node 10
			Location (26, 52)
	Distance between 21.633307652783937
			Node 6
		Load 76.0
		Time 233.63330765278394
		Delay 0.0
			Membership 1
			Time Window [225, 285]
			Load at node 40
			Service time at node 10
			Location (8, 40)
	Distance between 6.0
			Node 7
		Load 96.0
		Time 249.63330765278394
		Delay 0.0
			Membership 1
			Time Window [204, 264]
			Load at node 20
			Service time at node 10
			Location (2, 40)
	Distance between 2.0
			Node 57
		Load 56.0
		Time 261.63330765278397
		Delay 0.0
			Membership 1
			Time Window [204, 425]
			Load at node -40
			Service time at node 10
			Location (0, 40)
	Distance between 5.385164807134504
			Node 58
		Load 36.0
		Time 277.0184724599185
		Delay 0.0
			Membership 1
			Time Window [38, 322]
			Load at node -20
			Service time at node 10
			Location (2, 45)
	Distance between 3.0
			Node 100
		Load 27.0
		Time 290.0184724599185
		Delay 0.0
			Membership 1
			Time Window [35, 366]
			Load at node -9
			Service time at node 10
			Location (5, 45)
	Distance between 3.0
			Node 87
		Load 0.0
		Time 303.0184724599185
		Delay 0.0
			Membership 1
			Time Window [43, 523]
			Load at node -27
			Service time at node 10
			Location (8, 45)
	Distance between 20.615528128088304
			Node 45
		Load 19.0
		Time 333.6340005880068
		Delay 0.0
			Membership 1
			Time Window [262, 377]
			Load at node 19
			Service time at node 10
			Location (24, 58)
	Distance between 16.1245154965971
			Node 40
		Load 46.0
		Time 366.0
		Delay 0.0
			Membership 1
			Time Window [366, 483]
			Load at node 27
			Service time at node 10
			Location (8, 56)
	Distance between 7.211102550927978
			Node 38
		Load 51.0
		Time 383.211102550928
		Delay 0.0
			Membership 1
			Time Window [240, 451]
			Load at node 5
			Service time at node 10
			Location (2, 60)
	Distance between 8.94427190999916
			Node 41
		Load 81.0
		Time 402.15537446092713
		Delay 0.0
			Membership 1
			Time Window [382, 442]
			Load at node 30
			Service time at node 10
			Location (6, 68)
	Distance between 11.40175425099138
			Node 92
		Load 51.0
		Time 423.5571287119185
		Delay 0.0
			Membership 1
			Time Window [120, 600]
			Load at node -30
			Service time at node 10
			Location (15, 75)
	Distance between 3.0
			Node 3
		Load 71.0
		Time 436.5571287119185
		Delay 0.0
			Membership 1
			Time Window [393, 502]
			Load at node 20
			Service time at node 10
			Location (18, 75)
	Distance between 5.830951894845301
			Node 4
		Load 81.0
		Time 452.3880806067638
		Delay 0.0
			Membership 1
			Time Window [397, 457]
			Load at node 10
			Service time at node 10
			Location (15, 80)
	Distance between 3.0
			Node 96
		Load 62.0
		Time 465.3880806067638
		Delay 0.0
			Membership 1
			Time Window [432, 665]
			Load at node -19
			Service time at node 10
			Location (18, 80)
	Distance between 2.0
			Node 91
		Load 35.0
		Time 674.0
		Delay 0.0
			Membership 1
			Time Window [674, 734]
			Load at node -27
			Service time at node 10
			Location (20, 80)
	Distance between 5.385164807134504
			Node 89
		Load 30.0
		Time 689.3851648071345
		Delay 0.0
			Membership 1
			Time Window [291, 771]
			Load at node -5
			Service time at node 10
			Location (22, 85)
	Distance between 3.0
			Node 55
		Load 20.0
		Time 702.3851648071345
		Delay 0.0
			Membership 1
			Time Window [431, 911]
			Load at node -10
			Service time at node 10
			Location (25, 85)
	Distance between 18.867962264113206
			Node 54
		Load 0.0
		Time 780.0
		Delay 0.0
			Membership 1
			Time Window [780, 930]
			Load at node -20
			Service time at node 10
			Location (35, 69)
	Distance between 4.47213595499958
			Node 51
		Load 3.0
		Time 870.0
		Delay 0.0
			Membership 1
			Time Window [870, 930]
			Load at node 3
			Service time at node 0
			Location (31, 67)
	Distance between 0.0
			Node 102
		Load 0.0
		Time 870.0
		Delay 0.0
			Membership 1
			Time Window [870, 930]
			Load at node -3
			Service time at node 10
			Location (31, 67)
	Distance between 19.235384061671343
			Node 103
		Load 0.0
		Time 899.2353840616713
		Delay 0.0
			Membership 1
			Time Window [0, 960]
			Load at node 0
			Service time at node 0
			Location (40, 50)

Vehicle 2 with capacity 1000
			Node 0
		Load 0.0
		Time 0.0
		Delay 0.0
			Membership 1
			Time Window [0, 960]
			Load at node 0
			Service time at node 0
			Location (40, 50)
	Distance between 11.180339887498949
			Node 34
		Load 16.0
		Time 11.180339887498949
		Delay 0.0
			Membership 1
			Time Window [11, 140]
			Load at node 16
			Service time at node 10
			Location (35, 40)
	Distance between 9.219544457292887
			Node 43
		Load 30.0
		Time 30.399884344791836
		Delay 0.0
			Membership 1
			Time Window [19, 499]
			Load at node 14
			Service time at node 10
			Location (37, 31)
	Distance between 8.06225774829855
			Node 33
		Load 47.0
		Time 191.0
		Delay 0.0
			Membership 1
			Time Window [191, 310]
			Load at node 17
			Service time at node 10
			Location (45, 30)
	Distance between 20.223748416156685
			Node 8
		Load 87.0
		Time 221.2237484161567
		Delay 0.0
			Membership 1
			Time Window [199, 428]
			Load at node 40
			Service time at node 10
			Location (42, 10)
	Distance between 6.4031242374328485
			Node 84
		Load 70.0
		Time 237.62687265358954
		Delay 0.0
			Membership 1
			Time Window [231, 291]
			Load at node -17
			Service time at node 10
			Location (38, 5)
	Distance between 2.0
			Node 10
		Load 80.0
		Time 249.62687265358954
		Delay 0.0
			Membership 1
			Time Window [45, 525]
			Load at node 10
			Service time at node 10
			Location (40, 5)
	Distance between 4.0
			Node 61
		Load 70.0
		Time 306.0
		Delay 0.0
			Membership 1
			Time Window [306, 483]
			Load at node -10
			Service time at node 10
			Location (44, 5)
	Distance between 24.413111231467404
			Node 85
		Load 54.0
		Time 342.0
		Delay 0.0
			Membership 1
			Time Window [342, 571]
			Load at node -16
			Service time at node 10
			Location (30, 25)
	Distance between 9.055385138137417
			Node 94
		Load 40.0
		Time 361.0553851381374
		Delay 0.0
			Membership 1
			Time Window [310, 507]
			Load at node -14
			Service time at node 10
			Location (21, 24)
	Distance between 7.211102550927978
			Node 59
		Load 0.0
		Time 378.2664876890654
		Delay 0.0
			Membership 1
			Time Window [25, 505]
			Load at node -40
			Service time at node 10
			Location (25, 30)
	Distance between 5.0990195135927845
			Node 50
		Load 15.0
		Time 393.3655072026582
		Delay 0.0
			Membership 1
			Time Window [338, 398]
			Load at node 15
			Service time at node 10
			Location (26, 35)
	Distance between 16.0
			Node 5
		Load 35.0
		Time 419.3655072026582
		Delay 0.0
			Membership 1
			Time Window [401, 461]
			Load at node 20
			Service time at node 10
			Location (10, 35)
	Distance between 11.180339887498949
			Node 44
		Load 48.0
		Time 440.54584709015717
		Delay 0.0
			Membership 1
			Time Window [389, 449]
			Load at node 13
			Service time at node 10
			Location (12, 24)
	Distance between 4.47213595499958
			Node 29
		Load 67.0
		Time 455.01798304515677
		Delay 0.0
			Membership 1
			Time Window [42, 522]
			Load at node 19
			Service time at node 10
			Location (10, 20)
	Distance between 15.811388300841896
			Node 39
		Load 83.0
		Time 480.82937134599865
		Delay 0.0
			Membership 1
			Time Window [57, 537]
			Load at node 16
			Service time at node 10
			Location (5, 5)
	Distance between 13.038404810405298
			Node 48
		Load 118.0
		Time 516.0
		Delay 0.0
			Membership 1
			Time Window [516, 697]
			Load at node 35
			Service time at node 0
			Location (4, 18)
	Distance between 0.0
			Node 99
		Load 83.0
		Time 516.0
		Delay 0.0
			Membership 1
			Time Window [516, 697]
			Load at node -35
			Service time at node 10
			Location (4, 18)
	Distance between 22.80350850198276
			Node 90
		Load 67.0
		Time 548.8035085019827
		Delay 0.0
			Membership 1
			Time Window [535, 622]
			Load at node -16
			Service time at node 10
			Location (10, 40)
	Distance between 28.284271247461902
			Node 28
		Load 83.0
		Time 629.0
		Delay 0.0
			Membership 1
			Time Window [629, 689]
			Load at node 16
			Service time at node 10
			Location (30, 60)
	Distance between 10.0
			Node 95
		Load 70.0
		Time 649.0
		Delay 0.0
			Membership 1
			Time Window [613, 730]
			Load at node -13
			Service time at node 10
			Location (40, 60)
	Distance between 29.154759474226502
			Node 22
		Load 90.0
		Time 688.1547594742265
		Delay 0.0
			Membership 1
			Time Window [531, 736]
			Load at node 20
			Service time at node 10
			Location (55, 85)
	Distance between 12.0
			Node 80
		Load 71.0
		Time 710.1547594742265
		Delay 0.0
			Membership 1
			Time Window [655, 778]
			Load at node -19
			Service time at node 10
			Location (67, 85)
	Distance between 3.605551275463989
			Node 20
		Load 81.0
		Time 723.7603107496905
		Delay 0.0
			Membership 1
			Time Window [377, 857]
			Load at node 10
			Service time at node 10
			Location (65, 82)
	Distance between 24.166091947189145
			Node 101
		Load 66.0
		Time 757.9264026968796
		Delay 0.0
			Membership 1
			Time Window [554, 767]
			Load at node -15
			Service time at node 10
			Location (55, 60)
	Distance between 6.0
			Node 71
		Load 56.0
		Time 773.9264026968796
		Delay 0.0
			Membership 1
			Time Window [382, 862]
			Load at node -10
			Service time at node 10
			Location (55, 54)
	Distance between 6.324555320336759
			Node 79
		Load 40.0
		Time 790.2509580172164
		Delay 0.0
			Membership 1
			Time Window [789, 928]
			Load at node -16
			Service time at node 10
			Location (61, 52)
	Distance between 15.620499351813308
			Node 73
		Load 20.0
		Time 815.8714573690297
		Delay 0.0
			Membership 1
			Time Window [457, 937]
			Load at node -20
			Service time at node 10
			Location (49, 42)
	Distance between 5.385164807134504
			Node 56
		Load 0.0
		Time 831.2566221761642
		Delay 0.0
			Membership 1
			Time Window [817, 942]
			Load at node -20
			Service time at node 10
			Location (47, 47)
	Distance between 7.615773105863909
			Node 103
		Load 0.0
		Time 848.8723952820282
		Delay 0.0
			Membership 1
			Time Window [0, 960]
			Load at node 0
			Service time at node 0
			Location (40, 50)

Vehicle 3 with capacity 1000
			Node 0
		Load 0.0
		Time 0.0
		Delay 0.0
			Membership 1
			Time Window [0, 960]
			Load at node 0
			Service time at node 0
			Location (40, 50)
	Distance between 30.805843601498726
			Node 1
		Load 30.0
		Time 30.805843601498726
		Delay 0.0
			Membership 1
			Time Window [30, 510]
			Load at node 30
			Service time at node 10
			Location (22, 75)
	Distance between 7.280109889280518
			Node 24
		Load 40.0
		Time 48.08595349077925
		Delay 0.0
			Membership 1
			Time Window [37, 177]
			Load at node 10
			Service time at node 10
			Location (20, 82)
	Distance between 3.0
			Node 2
		Load 60.0
		Time 61.08595349077925
		Delay 0.0
			Membership 1
			Time Window [40, 520]
			Load at node 20
			Service time at node 10
			Location (20, 85)
	Distance between 35.35533905932738
			Node 53
		Load 40.0
		Time 106.44129255010662
		Delay 0.0
			Membership 1
			Time Window [33, 166]
			Load at node -20
			Service time at node 10
			Location (55, 80)
	Distance between 5.0
			Node 52
		Load 10.0
		Time 121.44129255010662
		Delay 0.0
			Membership 1
			Time Window [46, 201]
			Load at node -30
			Service time at node 10
			Location (60, 80)
	Distance between 7.0710678118654755
			Node 19
		Load 50.0
		Time 138.5123603619721
		Delay 0.0
			Membership 1
			Time Window [43, 186]
			Load at node 40
			Service time at node 10
			Location (65, 85)
	Distance between 20.09975124224178
			Node 37
		Load 58.0
		Time 168.61211160421388
		Delay 0.0
			Membership 1
			Time Window [27, 507]
			Load at node 8
			Service time at node 10
			Location (63, 65)
	Distance between 10.198039027185569
			Node 75
		Load 48.0
		Time 191.0
		Delay 0.0
			Membership 1
			Time Window [191, 410]
			Load at node -10
			Service time at node 10
			Location (65, 55)
	Distance between 20.0
			Node 31
		Load 51.0
		Time 221.0
		Delay 0.0
			Membership 1
			Time Window [197, 257]
			Load at node 3
			Service time at node 10
			Location (65, 35)
	Distance between 15.264337522473747
			Node 47
		Load 74.0
		Time 246.26433752247374
		Delay 0.0
			Membership 1
			Time Window [212, 692]
			Load at node 23
			Service time at node 10
			Location (57, 48)
	Distance between 20.808652046684813
			Node 30
		Load 83.0
		Time 277.07298956915855
		Delay 0.0
			Membership 1
			Time Window [214, 421]
			Load at node 9
			Service time at node 10
			Location (45, 65)
	Distance between 19.72308292331602
			Node 23
		Load 93.0
		Time 306.7960724924746
		Delay 0.0
			Membership 1
			Time Window [247, 307]
			Load at node 10
			Service time at node 10
			Location (55, 82)
	Distance between 5.830951894845301
			Node 98
		Load 70.0
		Time 339.0
		Delay 0.0
			Membership 1
			Time Window [339, 438]
			Load at node -23
			Service time at node 10
			Location (60, 85)
	Distance between 5.385164807134504
			Node 74
		Load 60.0
		Time 354.3851648071345
		Delay 0.0
			Membership 1
			Time Window [308, 368]
			Load at node -10
			Service time at node 10
			Location (62, 80)
	Distance between 6.4031242374328485
			Node 21
		Load 80.0
		Time 377.0
		Delay 0.0
			Membership 1
			Time Window [377, 494]
			Load at node 20
			Service time at node 10
			Location (58, 75)
	Distance between 19.235384061671343
			Node 42
		Load 90.0
		Time 406.23538406167137
		Delay 0.0
			Membership 1
			Time Window [332, 497]
			Load at node 10
			Service time at node 10
			Location (49, 58)
	Distance between 16.278820596099706
			Node 81
		Load 81.0
		Time 432.5142046577711
		Delay 0.0
			Membership 1
			Time Window [311, 526]
			Load at node -9
			Service time at node 10
			Location (37, 47)
	Distance between 17.26267650163207
			Node 27
		Load 86.0
		Time 459.77688115940316
		Delay 0.0
			Membership 1
			Time Window [405, 465]
			Load at node 5
			Service time at node 10
			Location (20, 50)
	Distance between 9.899494936611665
			Node 70
		Load 46.0
		Time 479.67637609601485
		Delay 0.0
			Membership 1
			Time Window [14, 494]
			Load at node -40
			Service time at node 10
			Location (27, 43)
	Distance between 15.231546211727817
			Node 93
		Load 36.0
		Time 570.0
		Delay 0.0
			Membership 1
			Time Window [570, 681]
			Load at node -10
			Service time at node 10
			Location (41, 37)
	Distance between 9.219544457292887
			Node 72
		Load 16.0
		Time 589.2195444572928
		Delay 0.0
			Membership 1
			Time Window [560, 673]
			Load at node -20
			Service time at node 10
			Location (50, 35)
	Distance between 22.0
			Node 26
		Load 46.0
		Time 621.2195444572928
		Delay 0.0
			Membership 1
			Time Window [327, 807]
			Load at node 30
			Service time at node 10
			Location (72, 35)
	Distance between 13.0
			Node 88
		Load 38.0
		Time 644.2195444572928
		Delay 0.0
			Membership 1
			Time Window [307, 787]
			Load at node -8
			Service time at node 10
			Location (85, 35)
	Distance between 5.385164807134504
			Node 17
		Load 48.0
		Time 659.6047092644274
		Delay 0.0
			Membership 1
			Time Window [562, 799]
			Load at node 10
			Service time at node 10
			Location (87, 30)
	Distance between 8.0
			Node 11
		Load 78.0
		Time 677.6047092644274
		Delay 0.0
			Membership 1
			Time Window [349, 829]
			Load at node 30
			Service time at node 10
			Location (95, 30)
	Distance between 37.53664875824692
			Node 82
		Load 75.0
		Time 725.1413580226742
		Delay 0.0
			Membership 1
			Time Window [611, 897]
			Load at node -3
			Service time at node 10
			Location (67, 5)
	Distance between 25.0
			Node 62
		Load 45.0
		Time 760.1413580226742
		Delay 0.0
			Membership 1
			Time Window [424, 904]
			Load at node -30
			Service time at node 10
			Location (42, 5)
	Distance between 7.0
			Node 77
		Load 15.0
		Time 821.0
		Delay 0.0
			Membership 1
			Time Window [821, 881]
			Load at node -30
			Service time at node 10
			Location (35, 5)
	Distance between 12.165525060596439
			Node 68
		Load 5.0
		Time 843.1655250605965
		Delay 0.0
			Membership 1
			Time Window [794, 854]
			Load at node -10
			Service time at node 10
			Location (23, 3)
	Distance between 10.63014581273465
			Node 78
		Load 0.0
		Time 863.7956708733311
		Delay 0.0
			Membership 1
			Time Window [842, 902]
			Load at node -5
			Service time at node 10
			Location (15, 10)
	Distance between 47.16990566028302
			Node 103
		Load 0.0
		Time 920.9655765336141
		Delay 0.0
			Membership 1
			Time Window [0, 960]
			Load at node 0
			Service time at node 0
			Location (40, 50)

Vehicle 5 with capacity 1000
			Node 0
		Load 0.0
		Time 0.0
		Delay 0.0
			Membership 1
			Time Window [0, 960]
			Load at node 0
			Service time at node 0
			Location (40, 50)
	Distance between 14.7648230602334
			Node 46
		Load 14.0
		Time 14.7648230602334
		Delay 0.0
			Membership 1
			Time Window [14, 74]
			Load at node 14
			Service time at node 10
			Location (53, 43)
	Distance between 6.708203932499369
			Node 97
		Load 0.0
		Time 31.47302699273277
		Delay 0.0
			Membership 1
			Time Window [20, 500]
			Load at node -14
			Service time at node 10
			Location (56, 37)
	Distance between 19.235384061671343
			Node 32
		Load 6.0
		Time 60.70841105440411
		Delay 0.0
			Membership 1
			Time Window [39, 316]
			Load at node 6
			Service time at node 10
			Location (65, 20)
	Distance between 20.615528128088304
			Node 18
		Load 16.0
		Time 91.32393918249241
		Delay 0.0
			Membership 1
			Time Window [71, 208]
			Load at node 10
			Service time at node 10
			Location (85, 25)
	Distance between 8.602325267042627
			Node 13
		Load 26.0
		Time 109.92626444953504
		Delay 0.0
			Membership 1
			Time Window [78, 339]
			Load at node 10
			Service time at node 10
			Location (92, 30)
	Distance between 5.830951894845301
			Node 12
		Load 46.0
		Time 138.0
		Delay 0.0
			Membership 1
			Time Window [138, 273]
			Load at node 20
			Service time at node 10
			Location (95, 35)
	Distance between 5.0
			Node 14
		Load 56.0
		Time 153.0
		Delay 0.0
			Membership 1
			Time Window [132, 375]
			Load at node 10
			Service time at node 10
			Location (90, 35)
	Distance between 2.0
			Node 16
		Load 76.0
		Time 165.0
		Delay 0.0
			Membership 1
			Time Window [50, 530]
			Load at node 20
			Service time at node 10
			Location (88, 35)
	Distance between 5.0
			Node 15
		Load 86.0
		Time 252.0
		Delay 0.0
			Membership 1
			Time Window [252, 359]
			Load at node 10
			Service time at node 10
			Location (88, 30)
	Distance between 26.832815729997478
			Node 35
		Load 95.0
		Time 298.0
		Delay 0.0
			Membership 1
			Time Window [298, 358]
			Load at node 9
			Service time at node 10
			Location (64, 42)
	Distance between 19.026297590440446
			Node 83
		Load 89.0
		Time 327.02629759044044
		Delay 0.0
			Membership 1
			Time Window [164, 644]
			Load at node -6
			Service time at node 10
			Location (63, 23)
	Distance between 11.40175425099138
			Node 65
		Load 79.0
		Time 348.4280518414318
		Delay 0.0
			Membership 1
			Time Window [298, 358]
			Load at node -10
			Service time at node 10
			Location (60, 12)
	Distance between 9.433981132056603
			Node 67
		Load 59.0
		Time 367.8620329734884
		Delay 0.0
			Membership 1
			Time Window [273, 498]
			Load at node -20
			Service time at node 10
			Location (55, 20)
	Distance between 9.219544457292887
			Node 69
		Load 49.0
		Time 425.0
		Delay 0.0
			Membership 1
			Time Window [425, 485]
			Load at node -10
			Service time at node 10
			Location (57, 29)
	Distance between 22.02271554554524
			Node 66
		Load 39.0
		Time 457.0227155455452
		Delay 0.0
			Membership 1
			Time Window [383, 486]
			Load at node -10
			Service time at node 10
			Location (40, 15)
	Distance between 2.0
			Node 9
		Load 49.0
		Time 494.0
		Delay 0.0
			Membership 1
			Time Window [494, 699]
			Load at node 10
			Service time at node 10
			Location (42, 15)
	Distance between 3.0
			Node 25
		Load 59.0
		Time 507.0
		Delay 0.0
			Membership 1
			Time Window [460, 539]
			Load at node 10
			Service time at node 10
			Location (42, 12)
	Distance between 5.0
			Node 86
		Load 50.0
		Time 609.0
		Delay 0.0
			Membership 1
			Time Window [609, 872]
			Load at node -9
			Service time at node 10
			Location (38, 15)
	Distance between 18.681541692269406
			Node 64
		Load 40.0
		Time 675.0
		Delay 0.0
			Membership 1
			Time Window [675, 735]
			Load at node -10
			Service time at node 10
			Location (20, 20)
	Distance between 21.213203435596427
			Node 76
		Load 30.0
		Time 706.2132034355964
		Delay 0.0
			Membership 1
			Time Window [683, 743]
			Load at node -10
			Service time at node 10
			Location (5, 35)
	Distance between 11.180339887498949
			Node 63
		Load 10.0
		Time 727.3935433230953
		Delay 0.0
			Membership 1
			Time Window [698, 827]
			Load at node -20
			Service time at node 10
			Location (0, 45)
	Distance between 21.213203435596427
			Node 60
		Load 0.0
		Time 758.6067467586918
		Delay 0.0
			Membership 1
			Time Window [623, 884]
			Load at node -10
			Service time at node 10
			Location (15, 60)
	Distance between 26.92582403567252
			Node 103
		Load 0.0
		Time 795.5325707943643
		Delay 0.0
			Membership 1
			Time Window [0, 960]
			Load at node 0
			Service time at node 0
			Location (40, 50)

